benchmarks_CP/INST_36x36/25/inst36x36_25_34.dzn
S=6;
start=[|
-1,	4,	-1,	-1,	-1,	-1,	-1,	-1,	-1,	-1,	-1,	-1,	-1,	-1,	-1,	22,	-1,	-1,	-1,	-1,	-1,	-1,	14,	23,	-1,	-1,	-1,	-1,	-1,	-1,	-1,	-1,	-1,	-1,	29,	-1|
-1,	-1,	12,	-1,	-1,	-1,	-1,	13,	-1,	4,	15,	34,	-1,	-1,	5,	-1,	7,	10,	-1,	-1,	-1,	-1,	-1,	-1,	-1,	1,	-1,	-1,	-1,	-1,	-1,	-1,	-1,	-1,	31,	-1|
-1,	-1,	1,	-1,	-1,	23,	-1,	-1,	-1,	-1,	-1,	10,	-1,	-1,	34,	-1,	-1,	-1,	-1,	-1,	36,	-1,	-1,	29,	-1,	4,	-1,	-1,	20,	-1,	-1,	-1,	-1,	-1,	-1,	-1|
-1,	-1,	7,	5,	-1,	34,	17,	-1,	16,	-1,	-1,	-1,	-1,	9,	-1,	-1,	-1,	-1,	-1,	4,	3,	-1,	-1,	10,	-1,	-1,	12,	-1,	-1,	-1,	20,	-1,	-1,	-1,	-1,	-1|
-1,	-1,	-1,	-1,	-1,	28,	-1,	-1,	-1,	8,	-1,	-1,	-1,	-1,	-1,	27,	-1,	-1,	35,	12,	-1,	-1,	-1,	-1,	-1,	-1,	-1,	-1,	-1,	-1,	5,	-1,	-1,	13,	17,	-1|
-1,	-1,	-1,	-1,	-1,	24,	-1,	-1,	-1,	-1,	-1,	-1,	-1,	36,	-1,	-1,	-1,	16,	-1,	-1,	-1,	-1,	-1,	-1,	-1,	-1,	-1,	-1,	5,	-1,	-1,	-1,	3,	-1,	-1,	-1|
5,	-1,	-1,	-1,	-1,	-1,	-1,	-1,	-1,	2,	17,	-1,	36,	8,	-1,	-1,	-1,	-1,	-1,	-1,	-1,	-1,	-1,	34,	-1,	3,	-1,	-1,	-1,	-1,	-1,	-1,	-1,	-1,	-1,	18|
-1,	-1,	-1,	35,	7,	-1,	34,	28,	-1,	-1,	33,	1,	-1,	-1,	-1,	12,	-1,	-1,	6,	21,	-1,	-1,	-1,	-1,	-1,	-1,	-1,	-1,	-1,	-1,	-1,	22,	24,	10,	26,	19|
-1,	-1,	-1,	25,	-1,	9,	31,	35,	-1,	-1,	10,	-1,	26,	-1,	-1,	-1,	11,	14,	2,	-1,	20,	-1,	-1,	-1,	-1,	30,	-1,	-1,	23,	-1,	6,	-1,	-1,	-1,	28,	-1|
-1,	-1,	-1,	-1,	-1,	2,	-1,	-1,	-1,	-1,	-1,	-1,	-1,	-1,	24,	-1,	-1,	-1,	-1,	-1,	-1,	-1,	-1,	14,	-1,	-1,	-1,	-1,	16,	-1,	-1,	9,	8,	-1,	-1,	-1|
-1,	-1,	-1,	-1,	-1,	-1,	5,	6,	-1,	-1,	4,	-1,	31,	-1,	-1,	-1,	-1,	-1,	7,	-1,	-1,	-1,	-1,	-1,	-1,	-1,	-1,	-1,	-1,	-1,	2,	-1,	-1,	-1,	25,	34|
17,	-1,	-1,	-1,	32,	10,	-1,	26,	-1,	-1,	-1,	-1,	4,	-1,	-1,	-1,	-1,	-1,	-1,	-1,	-1,	16,	-1,	5,	-1,	31,	35,	-1,	-1,	-1,	13,	27,	-1,	-1,	-1,	-1|
-1,	-1,	-1,	-1,	9,	-1,	-1,	7,	-1,	6,	-1,	2,	1,	31,	-1,	-1,	-1,	8,	-1,	16,	-1,	-1,	-1,	-1,	-1,	-1,	-1,	-1,	18,	-1,	26,	-1,	-1,	35,	-1,	-1|
-1,	-1,	8,	-1,	-1,	17,	-1,	15,	-1,	5,	-1,	-1,	9,	-1,	-1,	-1,	34,	29,	-1,	-1,	26,	-1,	-1,	35,	-1,	-1,	20,	13,	-1,	21,	25,	-1,	18,	-1,	-1,	-1|
-1,	-1,	20,	-1,	2,	-1,	-1,	10,	-1,	-1,	-1,	-1,	-1,	-1,	-1,	-1,	-1,	-1,	-1,	-1,	-1,	-1,	19,	-1,	-1,	27,	-1,	-1,	-1,	-1,	-1,	3,	-1,	-1,	-1,	-1|
-1,	-1,	-1,	-1,	-1,	22,	-1,	-1,	1,	-1,	36,	-1,	32,	4,	-1,	-1,	-1,	-1,	-1,	13,	2,	-1,	-1,	-1,	-1,	-1,	-1,	8,	-1,	-1,	-1,	-1,	-1,	12,	-1,	31|
-1,	35,	31,	16,	-1,	-1,	-1,	-1,	-1,	-1,	-1,	8,	-1,	10,	-1,	-1,	-1,	-1,	-1,	-1,	-1,	-1,	-1,	-1,	1,	-1,	36,	-1,	17,	-1,	14,	-1,	-1,	-1,	-1,	-1|
-1,	-1,	-1,	6,	-1,	-1,	-1,	23,	-1,	-1,	-1,	-1,	-1,	22,	-1,	13,	-1,	-1,	-1,	-1,	10,	-1,	-1,	-1,	-1,	-1,	-1,	-1,	-1,	-1,	-1,	-1,	15,	-1,	-1,	-1|
-1,	-1,	-1,	-1,	-1,	-1,	9,	-1,	-1,	-1,	-1,	-1,	-1,	-1,	6,	17,	-1,	-1,	-1,	-1,	-1,	-1,	-1,	-1,	16,	-1,	-1,	12,	-1,	-1,	-1,	-1,	-1,	-1,	-1,	-1|
-1,	-1,	-1,	8,	-1,	-1,	-1,	34,	30,	-1,	25,	-1,	-1,	-1,	-1,	-1,	-1,	-1,	-1,	-1,	14,	12,	-1,	-1,	-1,	-1,	32,	-1,	-1,	22,	-1,	-1,	-1,	5,	-1,	16|
-1,	9,	-1,	-1,	-1,	-1,	-1,	-1,	-1,	-1,	32,	-1,	-1,	-1,	10,	-1,	-1,	-1,	-1,	-1,	-1,	-1,	-1,	-1,	-1,	-1,	-1,	15,	-1,	-1,	-1,	-1,	-1,	17,	-1,	-1|
-1,	-1,	35,	-1,	-1,	-1,	12,	18,	-1,	-1,	-1,	23,	-1,	-1,	-1,	4,	-1,	-1,	-1,	-1,	-1,	17,	-1,	-1,	-1,	-1,	9,	-1,	-1,	-1,	-1,	-1,	-1,	-1,	3,	10|
22,	-1,	-1,	-1,	23,	-1,	-1,	-1,	-1,	-1,	-1,	16,	12,	-1,	18,	9,	-1,	-1,	10,	-1,	-1,	-1,	-1,	-1,	-1,	-1,	29,	-1,	-1,	-1,	-1,	-1,	-1,	-1,	11,	-1|
15,	2,	32,	-1,	34,	-1,	-1,	-1,	-1,	-1,	-1,	-1,	25,	-1,	-1,	35,	-1,	-1,	-1,	-1,	-1,	-1,	-1,	31,	-1,	-1,	-1,	-1,	-1,	-1,	24,	-1,	-1,	-1,	-1,	33|
-1,	-1,	-1,	-1,	-1,	-1,	-1,	31,	-1,	34,	-1,	22,	14,	-1,	-1,	1,	-1,	11,	-1,	-1,	24,	-1,	-1,	6,	9,	-1,	-1,	-1,	15,	-1,	10,	-1,	-1,	-1,	-1,	-1|
-1,	-1,	3,	34,	-1,	-1,	28,	-1,	-1,	32,	-1,	-1,	-1,	-1,	21,	-1,	36,	-1,	-1,	-1,	15,	-1,	-1,	1,	-1,	19,	-1,	-1,	-1,	-1,	-1,	-1,	33,	-1,	-1,	-1|
-1,	-1,	-1,	-1,	28,	-1,	18,	-1,	-1,	10,	5,	-1,	-1,	23,	35,	15,	-1,	-1,	-1,	-1,	32,	22,	-1,	-1,	-1,	-1,	-1,	-1,	-1,	-1,	-1,	12,	-1,	-1,	-1,	-1|
16,	-1,	22,	-1,	-1,	20,	30,	-1,	-1,	25,	-1,	-1,	13,	-1,	31,	-1,	18,	-1,	-1,	2,	-1,	-1,	10,	17,	-1,	-1,	-1,	-1,	8,	-1,	3,	-1,	-1,	-1,	-1,	-1|
-1,	29,	-1,	-1,	-1,	-1,	-1,	-1,	21,	-1,	-1,	6,	-1,	-1,	-1,	-1,	24,	-1,	13,	-1,	-1,	-1,	-1,	-1,	-1,	-1,	-1,	-1,	34,	-1,	-1,	-1,	-1,	11,	-1,	-1|
23,	-1,	-1,	-1,	-1,	-1,	36,	-1,	-1,	-1,	14,	15,	-1,	-1,	-1,	-1,	-1,	-1,	-1,	-1,	-1,	8,	-1,	-1,	-1,	-1,	-1,	-1,	-1,	-1,	-1,	-1,	-1,	19,	-1,	-1|
-1,	-1,	11,	-1,	-1,	4,	-1,	-1,	-1,	-1,	-1,	13,	-1,	-1,	-1,	-1,	-1,	33,	-1,	-1,	-1,	-1,	-1,	-1,	-1,	-1,	-1,	-1,	-1,	-1,	-1,	-1,	-1,	-1,	-1,	-1|
-1,	-1,	2,	14,	-1,	-1,	-1,	4,	-1,	3,	-1,	-1,	10,	-1,	32,	-1,	-1,	36,	-1,	35,	-1,	23,	-1,	-1,	-1,	6,	-1,	-1,	11,	16,	-1,	-1,	25,	-1,	5,	-1|
-1,	-1,	-1,	-1,	-1,	13,	-1,	-1,	-1,	20,	30,	-1,	-1,	-1,	7,	-1,	-1,	-1,	-1,	-1,	6,	1,	-1,	-1,	-1,	9,	-1,	-1,	25,	-1,	-1,	-1,	-1,	-1,	-1,	-1|
-1,	-1,	6,	-1,	-1,	-1,	-1,	-1,	-1,	-1,	-1,	-1,	-1,	-1,	-1,	-1,	22,	-1,	32,	20,	-1,	-1,	-1,	-1,	-1,	13,	-1,	-1,	-1,	-1,	-1,	-1,	-1,	-1,	-1,	-1|
29,	18,	23,	-1,	-1,	36,	-1,	16,	-1,	-1,	-1,	-1,	3,	-1,	-1,	-1,	-1,	-1,	34,	17,	-1,	-1,	-1,	-1,	-1,	14,	-1,	-1,	32,	7,	-1,	-1,	-1,	-1,	-1,	27|
-1,	-1,	-1,	-1,	-1,	35,	23,	-1,	-1,	-1,	-1,	17,	-1,	20,	-1,	-1,	-1,	-1,	4,	30,	-1,	-1,	-1,	3,	-1,	-1,	19,	29,	-1,	-1,	9,	36,	-1,	33,	-1,	11|];
